0 208 
1 212 
2 216 
3 217 
4 218 
5 214 
6 220 
7 217 
8 214 
9 213 
10 213 
11 214 
12 215 
13 216 
14 218 
15 213 
16 217 
17 209 
18 204 
19 198 
20 193 
21 198 
22 195 
23 190 
24 190 
25 194 
26 187 
27 185 
28 186 
29 188 
30 189 
31 195 
32 188 
33 188 
34 186 
35 178 
36 173 
37 172 
38 174 
39 171 
40 163 
41 165 
42 167 
43 163 
44 164 
45 162 
46 162 
47 157 
48 154 
49 149 
50 150 
51 147 
52 144 
53 145 
54 143 
55 142 
56 142 
57 137 
58 135 
59 138 
60 134 
61 131 
62 133 
63 134 
64 134 
65 132 
66 129 
67 132 
68 130 
69 128 
70 125 
71 124 
72 124 
73 128 
74 124 
75 123 
76 124 
77 117 
78 114 
79 110 
80 106 
81 111 
82 105 
83 97 
84 94 
85 92 
86 87 
87 84 
88 85 
89 84 
90 83 
91 81 
92 83 
93 77 
94 74 
95 72 
96 72 
97 69 
98 69 
99 66 
100 64 
101 64 
102 65 
103 62 
104 59 
105 57 
106 57 
107 53 
108 50 
109 50 
110 46 
111 52 
112 49 
113 52 
114 50 
115 44 
116 41 
117 40 
118 39 
119 35 
120 34 
121 32 
122 29 
123 29 
124 27 
125 25 
126 24 
127 24 
128 25 
129 26 
130 26 
131 27 
132 26 
133 30 
134 34 
135 30 
136 27 
137 24 
138 24 
139 22 
140 25 
141 25 
142 21 
143 18 
144 16 
145 12 
146 11 
147 8 
148 10 
149 10 
150 10 
151 6 
152 3 
153 4 
154 2 
155 1 
156 2 
157 3 
158 2 
159 1 
160 0 
161 0 

